<instance format="XCSP3" type="COP">
  <variables>
    <array id="x" note="x[i][t] is the amount ordered at node i at period (time) t" size="[6][12]">
      <domain for="x[0][0..6] x[1][0..2] x[2][7] x[4][7]"> 0..12 </domain>
      <domain for="x[0][7]"> 0..10 </domain>
      <domain for="x[0][8] x[1][9]"> 0..8 </domain>
      <domain for="x[0][9] x[3][11]"> 0..6 </domain>
      <domain for="x[0][10] x[1][11] x[2][9] x[4][9]"> 0..4 </domain>
      <domain for="x[0][11] x[2][10] x[4][10]"> 0..2 </domain>
      <domain for="x[1][3] x[2][1]"> 0..15 </domain>
      <domain for="x[1][4] x[3][8]"> 0..19 </domain>
      <domain for="x[1][5] x[2][2] x[4][5] x[5][9]"> 0..18 </domain>
      <domain for="x[1][6] x[2][0] x[2][4] x[2][6]"> 0..16 </domain>
      <domain for="x[1][7] x[2][3] x[2][5]"> 0..13 </domain>
      <domain for="x[1..2][8] x[4][8] x[5][10]"> 0..11 </domain>
      <domain for="x[1][10]"> 0..5 </domain>
      <domain for="x[2][11] x[4][11]"> 0 1 </domain>
      <domain for="x[3][0]"> 0..58 </domain>
      <domain for="x[3][1] x[5][5]"> 0..55 </domain>
      <domain for="x[3][2]"> 0..49 </domain>
      <domain for="x[3][3]"> 0..46 </domain>
      <domain for="x[3][4]"> 0..43 </domain>
      <domain for="x[3][5] x[4][0]"> 0..37 </domain>
      <domain for="x[3][6] x[5][8]"> 0..30 </domain>
      <domain for="x[3][7] x[4][4]"> 0..23 </domain>
      <domain for="x[3][9]"> 0..14 </domain>
      <domain for="x[3][10]"> 0..9 </domain>
      <domain for="x[4][1]"> 0..32 </domain>
      <domain for="x[4][2]"> 0..31 </domain>
      <domain for="x[4][3]"> 0..24 </domain>
      <domain for="x[4][6]"> 0..17 </domain>
      <domain for="x[5][0]"> 0..95 </domain>
      <domain for="x[5][1]"> 0..87 </domain>
      <domain for="x[5][2]"> 0..80 </domain>
      <domain for="x[5][3]"> 0..70 </domain>
      <domain for="x[5][4]"> 0..66 </domain>
      <domain for="x[5][6]"> 0..47 </domain>
      <domain for="x[5][7]"> 0..35 </domain>
      <domain for="x[5][11]"> 0..7 </domain>
    </array>
    <array id="y" note="y[i][t] is the amount stocked at node i at the end of period t" size="[6][12]">
      <domain for="y[0][0..1] y[1][0..4] y[2][0..3] y[3][0..6] y[4][0..3]"> 0..20 </domain>
      <domain for="y[0][2] y[1][5] y[2][4] y[4][4] y[5][8]"> 0..18 </domain>
      <domain for="y[0][3]"> 0..16 </domain>
      <domain for="y[0][4] y[3][8]"> 0..14 </domain>
      <domain for="y[0][5] y[2][6] y[4][6]"> 0..12 </domain>
      <domain for="y[0][6]"> 0..10 </domain>
      <domain for="y[0][7] y[1][8]"> 0..8 </domain>
      <domain for="y[0][8] y[3][10]"> 0..6 </domain>
      <domain for="y[0][9] y[1][10] y[2][8] y[4][8]"> 0..4 </domain>
      <domain for="y[0][10] y[2][9] y[4][9]"> 0..2 </domain>
      <domain for="y[][11]"> 0 </domain>
      <domain for="y[1][6]"> 0..13 </domain>
      <domain for="y[1..2][7] y[4][7] y[5][9]"> 0..11 </domain>
      <domain for="y[1][9]"> 0..5 </domain>
      <domain for="y[2][5] y[4][5]"> 0..17 </domain>
      <domain for="y[2][10] y[4][10]"> 0 1 </domain>
      <domain for="y[3][7]"> 0..19 </domain>
      <domain for="y[3][9]"> 0..9 </domain>
      <domain for="y[5][0]"> 0..87 </domain>
      <domain for="y[5][1]"> 0..80 </domain>
      <domain for="y[5][2]"> 0..70 </domain>
      <domain for="y[5][3]"> 0..66 </domain>
      <domain for="y[5][4]"> 0..55 </domain>
      <domain for="y[5][5]"> 0..47 </domain>
      <domain for="y[5][6]"> 0..35 </domain>
      <domain for="y[5][7]"> 0..30 </domain>
      <domain for="y[5][10]"> 0..7 </domain>
    </array>
  </variables>
  <constraints>
    <group>
      <intension> eq(%0,sub(%1,%2)) </intension>
      <args> y[0][0] x[0][0] 2 </args>
      <args> y[1][0] x[1][0] 1 </args>
      <args> y[2][0] x[2][0] 5 </args>
    </group>
    <group>
      <sum>
        <list> %0 %1 %2 </list>
        <coeffs> 1 -1 -1 </coeffs>
        <condition> (eq,-2) </condition>
      </sum>
      <args> y[0][1] y[0][0] x[0][1] </args>
      <args> y[0][2] y[0][1] x[0][2] </args>
      <args> y[0][3] y[0][2] x[0][3] </args>
      <args> y[0][4] y[0][3] x[0][4] </args>
      <args> y[0][5] y[0][4] x[0][5] </args>
      <args> y[0][6] y[0][5] x[0][6] </args>
      <args> y[0][7] y[0][6] x[0][7] </args>
      <args> y[0][8] y[0][7] x[0][8] </args>
      <args> y[0][9] y[0][8] x[0][9] </args>
      <args> y[0][10] y[0][9] x[0][10] </args>
      <args> y[0][11] y[0][10] x[0][11] </args>
      <args> y[1][7] y[1][6] x[1][7] </args>
      <args> y[2][9] y[2][8] x[2][9] </args>
    </group>
    <group>
      <sum>
        <list> %0 %1 %2 </list>
        <coeffs> 1 -1 -1 </coeffs>
        <condition> (eq,%3) </condition>
      </sum>
      <args> y[1][1] y[1][0] x[1][1] -4 </args>
      <args> y[1][2] y[1][1] x[1][2] -1 </args>
      <args> y[1][3] y[1][2] x[1][3] -1 </args>
      <args> y[1][4] y[1][3] x[1][4] -4 </args>
      <args> y[1][5] y[1][4] x[1][5] -5 </args>
      <args> y[1][6] y[1][5] x[1][6] -5 </args>
      <args> y[1][8] y[1][7] x[1][8] -3 </args>
      <args> y[1][9] y[1][8] x[1][9] -3 </args>
      <args> y[1][10] y[1][9] x[1][10] -1 </args>
      <args> y[1][11] y[1][10] x[1][11] -4 </args>
      <args> y[2][1] y[2][0] x[2][1] -1 </args>
      <args> y[2][2] y[2][1] x[2][2] -7 </args>
      <args> y[2][3] y[2][2] x[2][3] -1 </args>
      <args> y[2][4] y[2][3] x[2][4] -5 </args>
      <args> y[2][5] y[2][4] x[2][5] -1 </args>
      <args> y[2][6] y[2][5] x[2][6] -5 </args>
      <args> y[2][7] y[2][6] x[2][7] -1 </args>
      <args> y[2][8] y[2][7] x[2][8] -7 </args>
      <args> y[2][10] y[2][9] x[2][10] -1 </args>
      <args> y[2][11] y[2][10] x[2][11] -1 </args>
    </group>
    <group>
      <sum>
        <list> %0 %1 %2 </list>
        <coeffs> 1 -1 -1 </coeffs>
        <condition> (eq,%3) </condition>
      </sum>
      <args> x[3][0] x[0..1][0] y[3][0] </args>
      <args> x[5][0] x[3..4][0] y[5][0] </args>
    </group>
    <intension> eq(y[4][0],sub(x[4][0],x[2][0])) </intension>
    <group>
      <sum>
        <list> %... </list>
        <coeffs> -1 -1 1 1 </coeffs>
        <condition> (eq,%0) </condition>
      </sum>
      <args> y[3][1] x[0][1] x[1][1] y[3][0] x[3][1] </args>
      <args> y[3][2] x[0][2] x[1][2] y[3][1] x[3][2] </args>
      <args> y[3][3] x[0][3] x[1][3] y[3][2] x[3][3] </args>
      <args> y[3][4] x[0][4] x[1][4] y[3][3] x[3][4] </args>
      <args> y[3][5] x[0][5] x[1][5] y[3][4] x[3][5] </args>
      <args> y[3][6] x[0][6] x[1][6] y[3][5] x[3][6] </args>
      <args> y[3][7] x[0][7] x[1][7] y[3][6] x[3][7] </args>
      <args> y[3][8] x[0][8] x[1][8] y[3][7] x[3][8] </args>
      <args> y[3][9] x[0][9] x[1][9] y[3][8] x[3][9] </args>
      <args> y[3][10] x[0][10] x[1][10] y[3][9] x[3][10] </args>
      <args> y[3][11] x[0][11] x[1][11] y[3][10] x[3][11] </args>
      <args> y[5][1] x[3][1] x[4][1] y[5][0] x[5][1] </args>
      <args> y[5][2] x[3][2] x[4][2] y[5][1] x[5][2] </args>
      <args> y[5][3] x[3][3] x[4][3] y[5][2] x[5][3] </args>
      <args> y[5][4] x[3][4] x[4][4] y[5][3] x[5][4] </args>
      <args> y[5][5] x[3][5] x[4][5] y[5][4] x[5][5] </args>
      <args> y[5][6] x[3][6] x[4][6] y[5][5] x[5][6] </args>
      <args> y[5][7] x[3][7] x[4][7] y[5][6] x[5][7] </args>
      <args> y[5][8] x[3][8] x[4][8] y[5][7] x[5][8] </args>
      <args> y[5][9] x[3][9] x[4][9] y[5][8] x[5][9] </args>
      <args> y[5][10] x[3][10] x[4][10] y[5][9] x[5][10] </args>
      <args> y[5][11] x[3][11] x[4][11] y[5][10] x[5][11] </args>
    </group>
    <group>
      <intension> eq(%0,sub(add(%1,%2),%3)) </intension>
      <args> y[4][1] y[4][0] x[4][1] x[2][1] </args>
      <args> y[4][2] y[4][1] x[4][2] x[2][2] </args>
      <args> y[4][3] y[4][2] x[4][3] x[2][3] </args>
      <args> y[4][4] y[4][3] x[4][4] x[2][4] </args>
      <args> y[4][5] y[4][4] x[4][5] x[2][5] </args>
      <args> y[4][6] y[4][5] x[4][6] x[2][6] </args>
      <args> y[4][7] y[4][6] x[4][7] x[2][7] </args>
      <args> y[4][8] y[4][7] x[4][8] x[2][8] </args>
      <args> y[4][9] y[4][8] x[4][9] x[2][9] </args>
      <args> y[4][10] y[4][9] x[4][10] x[2][10] </args>
      <args> y[4][11] y[4][10] x[4][11] x[2][11] </args>
    </group>
    <block note="IC2">
      <group>
        <intension> or(eq(%0,0),gt(%1,0),gt(%2,0)) </intension>
        <args> x[3][0] x[0..1][0] </args>
        <args> x[3][1] x[0..1][1] </args>
        <args> x[3][2] x[0..1][2] </args>
        <args> x[3][3] x[0..1][3] </args>
        <args> x[3][4] x[0..1][4] </args>
        <args> x[3][5] x[0..1][5] </args>
        <args> x[3][6] x[0..1][6] </args>
        <args> x[3][7] x[0..1][7] </args>
        <args> x[3][8] x[0..1][8] </args>
        <args> x[3][9] x[0..1][9] </args>
        <args> x[3][10] x[0..1][10] </args>
        <args> x[3][11] x[0..1][11] </args>
        <args> x[5][0] x[3..4][0] </args>
        <args> x[5][1] x[3..4][1] </args>
        <args> x[5][2] x[3..4][2] </args>
        <args> x[5][3] x[3..4][3] </args>
        <args> x[5][4] x[3..4][4] </args>
        <args> x[5][5] x[3..4][5] </args>
        <args> x[5][6] x[3..4][6] </args>
        <args> x[5][7] x[3..4][7] </args>
        <args> x[5][8] x[3..4][8] </args>
        <args> x[5][9] x[3..4][9] </args>
        <args> x[5][10] x[3..4][10] </args>
        <args> x[5][11] x[3..4][11] </args>
      </group>
      <group>
        <intension> or(eq(%0,0),gt(%1,0)) </intension>
        <args> x[4][0] x[2][0] </args>
        <args> x[4][1] x[2][1] </args>
        <args> x[4][2] x[2][2] </args>
        <args> x[4][3] x[2][3] </args>
        <args> x[4][4] x[2][4] </args>
        <args> x[4][5] x[2][5] </args>
        <args> x[4][6] x[2][6] </args>
        <args> x[4][7] x[2][7] </args>
        <args> x[4][8] x[2][8] </args>
        <args> x[4][9] x[2][9] </args>
        <args> x[4][10] x[2][10] </args>
        <args> x[4][11] x[2][11] </args>
      </group>
    </block>
    <group note="IC5">
      <intension> or(eq(%0,0),eq(%1,0)) </intension>
      <args> y[0][0] x[0][1] </args>
      <args> y[0][1] x[0][2] </args>
      <args> y[0][2] x[0][3] </args>
      <args> y[0][3] x[0][4] </args>
      <args> y[0][4] x[0][5] </args>
      <args> y[0][5] x[0][6] </args>
      <args> y[0][6] x[0][7] </args>
      <args> y[0][7] x[0][8] </args>
      <args> y[0][8] x[0][9] </args>
      <args> y[0][9] x[0][10] </args>
      <args> y[0][10] x[0][11] </args>
      <args> y[1][0] x[1][1] </args>
      <args> y[1][1] x[1][2] </args>
      <args> y[1][2] x[1][3] </args>
      <args> y[1][3] x[1][4] </args>
      <args> y[1][4] x[1][5] </args>
      <args> y[1][5] x[1][6] </args>
      <args> y[1][6] x[1][7] </args>
      <args> y[1][7] x[1][8] </args>
      <args> y[1][8] x[1][9] </args>
      <args> y[1][9] x[1][10] </args>
      <args> y[1][10] x[1][11] </args>
      <args> y[2][0] x[2][1] </args>
      <args> y[2][1] x[2][2] </args>
      <args> y[2][2] x[2][3] </args>
      <args> y[2][3] x[2][4] </args>
      <args> y[2][4] x[2][5] </args>
      <args> y[2][5] x[2][6] </args>
      <args> y[2][6] x[2][7] </args>
      <args> y[2][7] x[2][8] </args>
      <args> y[2][8] x[2][9] </args>
      <args> y[2][9] x[2][10] </args>
      <args> y[2][10] x[2][11] </args>
      <args> y[3][0] x[3][1] </args>
      <args> y[3][1] x[3][2] </args>
      <args> y[3][2] x[3][3] </args>
      <args> y[3][3] x[3][4] </args>
      <args> y[3][4] x[3][5] </args>
      <args> y[3][5] x[3][6] </args>
      <args> y[3][6] x[3][7] </args>
      <args> y[3][7] x[3][8] </args>
      <args> y[3][8] x[3][9] </args>
      <args> y[3][9] x[3][10] </args>
      <args> y[3][10] x[3][11] </args>
      <args> y[4][0] x[4][1] </args>
      <args> y[4][1] x[4][2] </args>
      <args> y[4][2] x[4][3] </args>
      <args> y[4][3] x[4][4] </args>
      <args> y[4][4] x[4][5] </args>
      <args> y[4][5] x[4][6] </args>
      <args> y[4][6] x[4][7] </args>
      <args> y[4][7] x[4][8] </args>
      <args> y[4][8] x[4][9] </args>
      <args> y[4][9] x[4][10] </args>
      <args> y[4][10] x[4][11] </args>
      <args> y[5][0] x[5][1] </args>
      <args> y[5][1] x[5][2] </args>
      <args> y[5][2] x[5][3] </args>
      <args> y[5][3] x[5][4] </args>
      <args> y[5][4] x[5][5] </args>
      <args> y[5][5] x[5][6] </args>
      <args> y[5][6] x[5][7] </args>
      <args> y[5][7] x[5][8] </args>
      <args> y[5][8] x[5][9] </args>
      <args> y[5][9] x[5][10] </args>
      <args> y[5][10] x[5][11] </args>
    </group>
    <group class="redundant-constraints">
      <sum>
        <list> %... </list>
        <condition> (eq,%0) </condition>
      </sum>
      <args> 24 x[0][] </args>
      <args> 34 x[1][] </args>
      <args> 37 x[2][] </args>
      <args> 58 x[3][] </args>
      <args> 37 x[4][] </args>
      <args> 95 x[5][] </args>
    </group>
    <group>
      <sum>
        <list> %... </list>
        <condition> (eq,%0) </condition>
      </sum>
      <args> 22 y[0][0] x[0][1..11] </args>
      <args> 20 y[0][1] x[0][2..11] </args>
      <args> 18 y[0][2] x[0][3..11] </args>
      <args> 16 y[0][3] x[0][4..11] </args>
      <args> 14 y[0][4] x[0][5..11] </args>
      <args> 12 y[0][5] x[0][6..11] </args>
      <args> 10 y[0][6] x[0][7..11] </args>
      <args> 8 y[0][7] x[0][8..11] </args>
      <args> 6 y[0][8] x[0][9..11] </args>
      <args> 4 y[0][9] x[0][10] x[0][11] </args>
      <args> 33 y[1][0] x[1][1..11] </args>
      <args> 29 y[1][1] x[1][2..11] </args>
      <args> 28 y[1][2] x[1][3..11] </args>
      <args> 27 y[1][3] x[1][4..11] </args>
      <args> 23 y[1][4] x[1][5..11] </args>
      <args> 18 y[1][5] x[1][6..11] </args>
      <args> 13 y[1][6] x[1][7..11] </args>
      <args> 11 y[1][7] x[1][8..11] </args>
      <args> 8 y[1][8] x[1][9..11] </args>
      <args> 5 y[1][9] x[1][10] x[1][11] </args>
      <args> 32 y[2][0] x[2][1..11] </args>
      <args> 31 y[2][1] x[2][2..11] </args>
      <args> 24 y[2][2] x[2][3..11] </args>
      <args> 23 y[2][3] x[2][4..11] </args>
      <args> 18 y[2][4] x[2][5..11] </args>
      <args> 17 y[2][5] x[2][6..11] </args>
      <args> 12 y[2][6] x[2][7..11] </args>
      <args> 11 y[2][7] x[2][8..11] </args>
      <args> 4 y[2][8] x[2][9..11] </args>
      <args> 2 y[2][9] x[2][10] x[2][11] </args>
    </group>
    <group>
      <intension> eq(add(%0,%1),%2) </intension>
      <args> y[0][10] x[0][11] 2 </args>
      <args> y[1][10] x[1][11] 4 </args>
      <args> y[2][10] x[2][11] 1 </args>
    </group>
  </constraints>
  <objectives>
    <minimize type="sum">
      <list> y[][] gt(x[0][0],0) gt(x[0][1],0) gt(x[0][2],0) gt(x[0][3],0) gt(x[0][4],0) gt(x[0][5],0) gt(x[0][6],0) gt(x[0][7],0) gt(x[0][8],0) gt(x[0][9],0) gt(x[0][10],0) gt(x[0][11],0) gt(x[1][0],0) gt(x[1][1],0) gt(x[1][2],0) gt(x[1][3],0) gt(x[1][4],0) gt(x[1][5],0) gt(x[1][6],0) gt(x[1][7],0) gt(x[1][8],0) gt(x[1][9],0) gt(x[1][10],0) gt(x[1][11],0) gt(x[2][0],0) gt(x[2][1],0) gt(x[2][2],0) gt(x[2][3],0) gt(x[2][4],0) gt(x[2][5],0) gt(x[2][6],0) gt(x[2][7],0) gt(x[2][8],0) gt(x[2][9],0) gt(x[2][10],0) gt(x[2][11],0) gt(x[3][0],0) gt(x[3][1],0) gt(x[3][2],0) gt(x[3][3],0) gt(x[3][4],0) gt(x[3][5],0) gt(x[3][6],0) gt(x[3][7],0) gt(x[3][8],0) gt(x[3][9],0) gt(x[3][10],0) gt(x[3][11],0) gt(x[4][0],0) gt(x[4][1],0) gt(x[4][2],0) gt(x[4][3],0) gt(x[4][4],0) gt(x[4][5],0) gt(x[4][6],0) gt(x[4][7],0) gt(x[4][8],0) gt(x[4][9],0) gt(x[4][10],0) gt(x[4][11],0) gt(x[5][0],0) gt(x[5][1],0) gt(x[5][2],0) gt(x[5][3],0) gt(x[5][4],0) gt(x[5][5],0) gt(x[5][6],0) gt(x[5][7],0) gt(x[5][8],0) gt(x[5][9],0) gt(x[5][10],0) gt(x[5][11],0) </list>
      <coeffs> 150x36 100x24 50x12 1000x72 </coeffs>
    </minimize>
  </objectives>
</instance>
